Solving original (integer) problem with strategy gdp.binary_multiplication...
--- Job model.gms Start 02/19/26 04:10:30 52.2.0 d8e408be LEX-LEG x86 64bit/Linux
--- Applying:
    /package/gams/52.2/gmsprmun.txt
--- GAMS Parameters defined
    Input /local/scratch/a/sgusev/repos/k_means/data/gams_gurobi_gdp.binary_multiplication/no_mode/2026-02-19_04-10-30/original/model.gms
    Output /local/scratch/a/sgusev/repos/k_means/data/gams_gurobi_gdp.binary_multiplication/no_mode/2026-02-19_04-10-30/original/output.lst
    ScrDir /local/scratch/a/sgusev/repos/k_means/data/gams_gurobi_gdp.binary_multiplication/no_mode/2026-02-19_04-10-30/original/225a/
    SysDir /package/gams/52.2/
    CurDir /local/scratch/a/sgusev/repos/k_means/data/gams_gurobi_gdp.binary_multiplication/no_mode/2026-02-19_04-10-30/original/
    LogOption 3
    AppendLog 1
Licensee: David Bernal / SECQUOIA Research Group         G251008+0003Ac-GEN
          Purdue University, Davidson School of Chemical EngineeringDCE4838
          225a/gamslice.dat
          5a82958a-fbca-4a23
          node:66820903 mem:995 cores:48 ipport:47931 v:2                  
          Evaluation license: Not for commercial or production use
          The time-limited license stops working on : Jun 30, 2027
System information: 48 physical cores and 995 Gb physical memory detected
GAMS 52.2.0   Copyright (C) 1987-2025 GAMS Development. All rights reserved
--- Starting compilation
--- model.gms(388) 2 Mb
--- $echo File /local/scratch/a/sgusev/repos/k_means/data/gams_gurobi_gdp.binary_multiplication/no_mode/2026-02-19_04-10-30/original/gurobi.opt
--- model.gms(667) 2 Mb
--- Starting execution: elapsed 0:00:00.006
--- model.gms(397) 3 Mb
--- Generating MINLP model GAMS_MODEL
--- model.gms(401) 5 Mb
---   101 rows  112 columns  505 non-zeroes
---   1,200 nl-code  400 nl-non-zeroes
---   80 discrete-columns
--- Range statistics (absolute non-zero finite values)
--- RHS       [min, max] : [ 1.000E+00, 1.000E+00] - Zero values observed as well
--- Bound     [min, max] : [ 1.000E+00, 9.600E+01] - Zero values observed as well
--- Matrix    [min, max] : [ 1.968E-01, 2.056E+00] - Zero values observed as well
--- model.gms(401) 3 Mb
--- Executing GUROBI (Solvelink=5): elapsed 0:00:00.010
Reading parameter(s) from "/local/scratch/a/sgusev/repos/k_means/data/gams_gurobi_gdp.binary_multiplication/no_mode/2026-02-19_04-10-30/original/gurobi.opt"
>>  NonConvex 2
>>  Threads 1
>>  MIPGap 1e-06
>>  MIPGapAbs 1e-10
>>  FeasibilityTol 1e-06
>>  OptimalityTol 1e-06
>>  IntFeasTol 1e-05
Finished reading from "/local/scratch/a/sgusev/repos/k_means/data/gams_gurobi_gdp.binary_multiplication/no_mode/2026-02-19_04-10-30/original/gurobi.opt"

... GRB_LICENSE_FILE = /local/scratch/a/sgusev/gurobi.lic

    Gurobi           52.2.0 d8e408be Dec 8, 2025           LEG x86 64bit/Linux    

... GAMS/Gurobi Link license.
... GMO Q Extraction (ThreePass): 0.00s

    Gurobi Optimizer version 13.0.0 build v13.0.0rc1 (linux64 - "Oracle Linux Server 9.7")
    
    CPU model: AMD EPYC 7643 48-Core Processor, instruction set [SSE2|AVX|AVX2]
    Thread count: 48 physical cores, 96 logical processors, using up to 1 threads
    
    Non-default parameters:
    TimeLimit  300
    MIPGap  1e-06
    LogToConsole  0
    NonConvex  2
    Threads  1
    
    Optimize a model with 100 rows, 191 columns and 168 nonzeros (Min)
    Model fingerprint: 0xc6f401ae
    Model has 16 linear objective coefficients
    Model has 80 general nonlinear constraints (320 nonlinear terms)
    Variable types: 111 continuous, 80 integer (0 binary)
    Coefficient statistics:
      Matrix range     [1e+00, 1e+00]
      Objective range  [1e+00, 1e+00]
      Bounds range     [1e+00, 1e+02]
      RHS range        [1e+00, 1e+00]
      NLCon coe range  [3e-02, 1e+00]
    Presolve model has 80 nlconstr
    Added 560 variables to disaggregate expressions
    Presolve removed 80 rows and 0 columns
    Presolve time: 0.00s
    Presolved: 1380 rows, 832 columns, 3208 nonzeros
    Presolved model has 240 bilinear constraint(s)
    
    Solving non-convex MIQCP to global optimality
    
    Variable types: 752 continuous, 80 integer (80 binary)
    Found heuristic solution: objective 14.6691301
    
    Root relaxation: objective 0.000000e+00, 341 iterations, 0.00 seconds (0.00 work units)
    
        Nodes    |    Current Node    |     Objective Bounds      |     Work
     Expl Unexpl |  Obj  Depth IntInf | Incumbent    BestBd   Gap | It/Node Time
    
         0     0    0.00000    0   50   14.66913    0.00000   100%     -    0s
         0     0    0.00000    0   86   14.66913    0.00000   100%     -    0s
         0     0    0.00000    0  157   14.66913    0.00000   100%     -    0s
         0     0    0.00000    0  240   14.66913    0.00000   100%     -    0s
    H    0     0                      10.5161077    0.00000   100%     -    0s
         0     0    0.00000    0  240   10.51611    0.00000   100%     -    0s
         0     0    0.00000    0  215   10.51611    0.00000   100%     -    0s
         0     0    0.00000    0  256   10.51611    0.00000   100%     -    0s
         0     0    0.00000    0  256   10.51611    0.00000   100%     -    0s
         0     0    0.00000    0  270   10.51611    0.00000   100%     -    0s
         0     0    0.00000    0  247   10.51611    0.00000   100%     -    0s
    H    0     0                      10.1271818    0.00000   100%     -    0s
    H    0     0                      10.1044182    0.00000   100%     -    0s
         0     0    0.00000    0  254   10.10442    0.00000   100%     -    0s
         0     0    0.00000    0  258   10.10442    0.00000   100%     -    0s
         0     0    0.00000    0  252   10.10442    0.00000   100%     -    0s
         0     0    0.00000    0  252   10.10442    0.00000   100%     -    0s
         0     0    0.00000    0  252   10.10442    0.00000   100%     -    0s
    H    0     0                       9.7692597    0.00000   100%     -    0s
    H    0     0                       8.8023614    0.00000   100%     -    0s
         0     2    0.00000    0  252    8.80236    0.00000   100%     -    0s
    H   49    49                       8.6504286    0.00000   100%  20.7    0s
    H   52    52                       8.6504286    0.00000   100%  19.6    0s
    H   52    52                       8.3879754    0.00000   100%  19.6    0s
    H   55    55                       8.2898716    0.00000   100%  19.1    0s
    H   56    56                       8.0549933    0.00000   100%  18.9    0s
    H   57    57                       7.8426197    0.00000   100%  19.3    0s
    H   60    60                       7.0222650    0.00000   100%  19.2    0s
    H  113   111                       6.9389479    0.00000   100%  13.9    0s
    H  120   118                       6.8591652    0.00000   100%  13.6    0s
    H  163   158                       6.8085010    0.00000   100%  12.0    0s
    H  558   469                       6.5231272    0.00000   100%  14.8    1s
    H  558   469                       6.5155032    0.00000   100%  14.8    1s
    H  558   469                       6.5150974    0.00000   100%  14.8    1s
    H  587   466                       6.2675093    0.00000   100%  22.5    1s
    H  587   443                       6.1791192    0.00000   100%  22.5    1s
    H  591   423                       6.1737675    0.00000   100%  22.7    1s
    H  591   402                       6.1734894    0.00000   100%  22.7    1s
    H  591   382                       6.1723503    0.00000   100%  22.7    1s
    H  605   372                       6.1597901    0.00000   100%  22.8    1s
    H  605   354                       6.1593198    0.00000   100%  22.8    1s
    H  744   418                       6.1073043    0.00000   100%  22.1    2s
    H  744   402                       6.0892500    0.00000   100%  22.1    2s
    H  744   386                       6.0853072    0.00000   100%  22.1    2s
    H  756   379                       6.0850965    0.00000   100%  22.0    2s
    H  827   393                       6.0850743    0.00000   100%  21.9    2s
    H  951   432                       6.0374713    0.00000   100%  21.8    2s
    H 1022   462                       6.0374589    0.00000   100%  23.0    2s
    H 1169   516                       6.0270457    0.00000   100%  22.4    2s
    H 1169   505                       6.0270381    0.00000   100%  22.4    2s
    H 1220   538                       6.0270327    0.00000   100%  22.2    2s
    H 1282   578                       6.0210444    0.00000   100%  22.1    3s
    H 1282   578                       6.0104315    0.00000   100%  22.1    3s
    H 1282   578                       5.9995306    0.00000   100%  22.1    3s
    H 1282   578                       5.9952253    0.00000   100%  22.1    3s
    H 1364   647                       5.9200698    0.00000   100%  21.8    3s
    H 1399   679                       5.8335907    0.00000   100%  22.0    3s
    H 1695   884                       5.3751237    0.00000   100%  22.3    3s
    H 1721   857                       4.8367138    0.00000   100%  22.4    3s
    H 1736   836                       4.5035346    0.00000   100%  22.4    3s
    H 1753   848                       4.4768919    0.00000   100%  22.3    3s
    H 1835   902                       4.4585412    0.00000   100%  22.5    3s
    H 1835   902                       4.4523846    0.00000   100%  22.5    3s
    H 1835   902                       4.4511930    0.00000   100%  22.5    3s
    H 1838   786                       4.1798345    0.00000   100%  22.6    3s
    H 1952   850                       4.0625424    0.00000   100%  22.5    3s
    H 1965   859                       4.0096525    0.00000   100%  22.7    3s
    H 1965   859                       4.0023350    0.00000   100%  22.7    3s
    H 1965   859                       3.9972656    0.00000   100%  22.7    3s
    H 1995   889                       3.9972656    0.00000   100%  22.7    4s
    H 2006   898                       3.9972422    0.00000   100%  22.7    4s
    H 2006   898                       3.9972369    0.00000   100%  22.7    4s
    H 2151   991                       3.9913758    0.00000   100%  22.9    4s
    H 2151   991                       3.9906598    0.00000   100%  22.9    4s
    H 2227  1051                       3.9890126    0.00000   100%  22.6    4s
      2601  1247    3.49091   63  216    3.98901    0.00000   100%  22.7    5s
    H 2904  1375                       3.9890076    0.00000   100%  22.6    5s
    H 2906  1375                       3.9890076    0.00000   100%  22.6    5s
    H 3104  1471                       3.9699922    0.00000   100%  22.7    5s
    H 3104  1471                       3.9699854    0.00000   100%  22.7    5s
    H 3148  1483                       3.8985579    0.00000   100%  22.7    5s
    H 3275  1543                       3.8985579    0.00000   100%  22.6    5s
    H 3301  1561                       3.8906684    0.00000   100%  22.7    6s
    H 3301  1561                       3.8896018    0.00000   100%  22.7    6s
    H 3301  1561                       3.8895714    0.00000   100%  22.7    6s
    H 3614  1705                       3.7225784    0.00000   100%  22.8    6s
    H 3614  1705                       3.7223210    0.00000   100%  22.8    6s
    H 3838  1792                       3.7223175    0.00000   100%  22.8    6s
    H 3917  1845                       3.6759428    0.00000   100%  22.7    6s
    H 4009  1878                       3.6684138    0.00000   100%  22.6    7s
    H 4009  1878                       3.6673463    0.00000   100%  22.6    7s
    H 4009  1878                       3.6673167    0.00000   100%  22.6    7s
    H 4052  1903                       3.6673133    0.00000   100%  22.6    7s
    H 4160  1940                       3.6673130    0.00000   100%  22.7    7s
    H 4386  2033                       3.6673126    0.00000   100%  23.3    7s
    H 4456  2069                       3.6673110    0.00000   100%  23.3    7s
    H 4557  2108                       3.6673098    0.00000   100%  23.3    7s
    H 5557  2526                       3.5471404    0.00000   100%  23.9    9s
    H 5557  2513                       3.4759761    0.00000   100%  23.9    9s
      6057  2772    0.40744   44  243    3.47598    0.00000   100%  24.0   10s
    H 9340  4477                       3.4759126    0.00000   100%  23.2   13s
    H10072  4822                       3.4758907    0.00000   100%  23.6   14s
    H10072  4821                       3.4758228    0.00000   100%  23.6   14s
     10202  4866    0.46886   36  255    3.47582    0.00000   100%  23.7   15s
    H12655  5994                       3.4757809    0.00000   100%  24.6   18s
    H12655  5994                       3.4757788    0.00000   100%  24.6   18s
     14016  6524    2.78080   33  251    3.47578    0.00000   100%  25.3   20s
     18325  8500    2.56120   44  243    3.47578    0.00000   100%  26.2   25s
    H19080  8839                       3.4679944    0.00000   100%  26.4   26s
    H19080  8838                       3.4675836    0.00000   100%  26.4   26s
    H19080  8838                       3.4672670    0.00000   100%  26.4   26s
    H19080  8713                       3.2955089    0.00000   100%  26.4   26s
    H19080  8698                       3.2768953    0.00000   100%  26.4   26s
    H19080  8697                       3.2768643    0.00000   100%  26.4   26s
    H19080  8674                       3.2437433    0.00000   100%  26.4   26s
    H19080  8672                       3.2420324    0.00000   100%  26.4   26s
    H19975  9116                       3.2420306    0.00000   100%  26.3   27s
     21666  9959    2.71625   41  232    3.24203    0.00000   100%  26.4   30s
     25889 11777    1.62421   33  257    3.24203    0.00000   100%  26.5   35s
    H29222 13059                       3.2420271    0.00000   100%  26.7   39s
     29419 13118    2.55657   49  254    3.24203    0.00000   100%  26.6   40s
     33576 14916    2.69342   37  226    3.24203    0.00092   100%  26.7   45s
     37814 16571    2.52187   57  219    3.24203    0.04814  98.5%  26.7   50s
     41476 17998    0.09580   35  257    3.24203    0.09580  97.0%  26.7   55s
     45388 19685     cutoff   50         3.24203    0.13002  96.0%  26.5   60s
     49555 21190    0.24930   30  239    3.24203    0.21077  93.5%  26.6   65s
     53899 22698    1.84270   44  238    3.24203    0.24846  92.3%  26.6   70s
    H57250 23986                       3.2219009    0.24992  92.2%  26.3   73s
    H58250 24480                       3.2219009    0.24992  92.2%  26.1   74s
     58250 24482    2.94348   41  249    3.22190    0.24992  92.2%  26.1   75s
     62858 26074     cutoff   49         3.22190    0.30049  90.7%  25.9   80s
     67346 27598     cutoff   41         3.22190    0.32129  90.0%  25.8   85s
     71292 28913    2.30910   33  243    3.22190    0.34058  89.4%  25.9   90s
     75757 30468    2.78722   44  215    3.22190    0.35930  88.8%  25.7   95s
     80193 31997    1.33375   44  233    3.22190    0.37994  88.2%  25.6  100s
     84702 33618    2.88089   50  218    3.22190    0.40368  87.5%  25.4  105s
     89233 35016 infeasible   44         3.22190    0.41826  87.0%  25.4  110s
     93731 36402 infeasible   37         3.22190    0.44146  86.3%  25.3  115s
     98110 38025    0.44474   33  258    3.22190    0.44474  86.2%  25.3  120s
     102607 39538    2.79883   55  187    3.22190    0.46835  85.5%  25.2  125s
     107120 41080    2.37628   50  204    3.22190    0.48641  84.9%  25.1  130s
     111969 43174    3.10528   99  160    3.22190    0.49162  84.7%  24.9  135s
     116265 44512    2.42538   51  246    3.22190    0.50739  84.3%  24.9  140s
     120828 46180    2.56278   48  235    3.22190    0.52236  83.8%  24.8  145s
     125000 47686    1.76765   54  219    3.22190    0.52831  83.6%  24.7  150s
     129454 49143    1.14992   45  222    3.22190    0.54135  83.2%  24.6  155s
    H133480 48614                       2.9124879    0.55483  80.9%  24.6  159s
     133828 48733    2.65855   61  243    2.91249    0.55622  80.9%  24.6  160s
     137791 49763    1.43407   29  233    2.91249    0.58310  80.0%  24.6  165s
     142060 50973    1.80005   35  245    2.91249    0.61003  79.1%  24.6  170s
     146307 52220    1.61085   33  241    2.91249    0.62179  78.7%  24.6  175s
     150530 53296    2.50951   43  243    2.91249    0.64093  78.0%  24.5  180s
     154655 54384    2.42635   38  238    2.91249    0.66301  77.2%  24.5  185s
     158713 55483    1.20124   34  241    2.91249    0.67888  76.7%  24.5  190s
     162841 56560     cutoff   37         2.91249    0.69200  76.2%  24.5  195s
     167112 57736     cutoff   41         2.91249    0.70440  75.8%  24.5  200s
     171175 58651    0.72191   41  248    2.91249    0.72191  75.2%  24.5  205s
     175378 59642    1.83587   27  256    2.91249    0.73820  74.7%  24.5  210s
     179537 60618    1.73745   42  210    2.91249    0.75380  74.1%  24.4  215s
    H181456 61099                       2.9124879    0.76014  73.9%  24.4  217s
    H181457 61100                       2.9124879    0.76014  73.9%  24.4  218s
    H181509 61100                       2.9124879    0.76084  73.9%  24.4  218s
     182539 61400    1.99881   35  233    2.91249    0.76335  73.8%  24.4  220s
     186450 62324    1.76608   40  229    2.91249    0.77919  73.2%  24.4  225s
     190463 63276    0.78982   25  245    2.91249    0.78982  72.9%  24.4  230s
     194314 64153    0.80181   46  236    2.91249    0.80181  72.5%  24.5  235s
     198016 65044    2.45908   63  219    2.91249    0.81514  72.0%  24.5  240s
     202229 66068    2.36986   52  229    2.91249    0.83040  71.5%  24.5  245s
     206421 67035    1.89951   42  239    2.91249    0.84169  71.1%  24.4  250s
     210759 68089     cutoff   46         2.91249    0.85165  70.8%  24.4  255s
     214817 68931    1.53614   47  256    2.91249    0.86676  70.2%  24.3  260s
     218202 69597    1.55705   48  253    2.91249    0.87879  69.8%  24.3  265s
     222212 70576    1.82803   46  227    2.91249    0.89072  69.4%  24.3  270s
     226356 71497    2.45607   52  188    2.91249    0.90179  69.0%  24.2  275s
     230605 72414    1.64324   45  231    2.91249    0.91561  68.6%  24.2  280s
     234548 73113     cutoff   57         2.91249    0.92729  68.2%  24.2  285s
     238568 74054     cutoff   60         2.91249    0.93629  67.9%  24.2  290s
     242559 74993    2.24314   33  249    2.91249    0.94553  67.5%  24.1  295s
    
    Cutting planes:
      Gomory: 5
      Implied bound: 19
      MIR: 26
      Flow cover: 115
      RLT: 4
      Relax-and-lift: 1
    
    Explored 246663 nodes (5946803 simplex iterations) in 300.00 seconds (212.23 work units)
    Thread count was 1 (of 96 available processors)
    
    Solution count 10: 2.91249 3.2219 3.24203 ... 3.46727
    
    Time limit reached
    Best objective 2.912487871038e+00, best bound 9.573733280444e-01, gap 67.1287%
    
    User-callback calls 246775, time in user-callback 0.01 sec

--- Reading solution for model GAMS_MODEL
***
*** Solver did not provide marginals for model GAMS_MODEL
***
--- Executing after solve: elapsed 0:05:00.099
--- model.gms(404) 3 Mb
--- model.gms(667) 5 Mb
--- Putfile results /local/scratch/a/sgusev/repos/k_means/data/gams_gurobi_gdp.binary_multiplication/no_mode/2026-02-19_04-10-30/original/results.dat
--- Putfile statresults /local/scratch/a/sgusev/repos/k_means/data/gams_gurobi_gdp.binary_multiplication/no_mode/2026-02-19_04-10-30/original/resultsstat.dat
*** Status: Normal completion
--- Job model.gms Stop 02/19/26 04:15:30 elapsed 0:05:00.100
Original problem solved. Time taken: 300.587415933609 seconds
Original objective value: 2.912487871037626
